p cnf 234 2636
-1 -199 0
-2 -200 0
-3 -201 0
-4 -202 0
-5 -203 0
-6 -204 0
-7 -205 0
-8 -206 0
-9 -207 0
-1 -208 0
-2 -209 0
-3 -210 0
-4 -211 0
-5 -212 0
-6 -213 0
-7 -214 0
-8 -215 0
-9 -216 0
-1 -154 0
-2 -155 0
-3 -156 0
-4 -157 0
-5 -158 0
-6 -159 0
-7 -160 0
-8 -161 0
-9 -162 0
-1 -172 0
-2 -173 0
-3 -174 0
-4 -175 0
-5 -176 0
-6 -177 0
-7 -178 0
-8 -179 0
-9 -180 0
-1 -127 0
-2 -128 0
-3 -129 0
-4 -130 0
-5 -131 0
-6 -132 0
-7 -133 0
-8 -134 0
-9 -135 0
-1 -10 0
-2 -11 0
-3 -12 0
-4 -13 0
-5 -14 0
-6 -15 0
-7 -16 0
-8 -17 0
-9 -18 0
-1 -217 0
-2 -218 0
-3 -219 0
-4 -220 0
-5 -221 0
-6 -222 0
-7 -223 0
-8 -224 0
-9 -225 0
-1 -82 0
-2 -83 0
-3 -84 0
-4 -85 0
-5 -86 0
-6 -87 0
-7 -88 0
-8 -89 0
-9 -90 0
-1 -109 0
-2 -110 0
-3 -111 0
-4 -112 0
-5 -113 0
-6 -114 0
-7 -115 0
-8 -116 0
-9 -117 0
-1 -145 0
-2 -146 0
-3 -147 0
-4 -148 0
-5 -149 0
-6 -150 0
-7 -151 0
-8 -152 0
-9 -153 0
-1 -46 0
-2 -47 0
-3 -48 0
-4 -49 0
-5 -50 0
-6 -51 0
-7 -52 0
-8 -53 0
-9 -54 0
-1 -28 0
-2 -29 0
-3 -30 0
-4 -31 0
-5 -32 0
-6 -33 0
-7 -34 0
-8 -35 0
-9 -36 0
-1 -190 0
-2 -191 0
-3 -192 0
-4 -193 0
-5 -194 0
-6 -195 0
-7 -196 0
-8 -197 0
-9 -198 0
-1 -118 0
-2 -119 0
-3 -120 0
-4 -121 0
-5 -122 0
-6 -123 0
-7 -124 0
-8 -125 0
-9 -126 0
-10 -37 0
-11 -38 0
-12 -39 0
-13 -40 0
-14 -41 0
-15 -42 0
-16 -43 0
-17 -44 0
-18 -45 0
-10 -199 0
-11 -200 0
-12 -201 0
-13 -202 0
-14 -203 0
-15 -204 0
-16 -205 0
-17 -206 0
-18 -207 0
-10 -208 0
-11 -209 0
-12 -210 0
-13 -211 0
-14 -212 0
-15 -213 0
-16 -214 0
-17 -215 0
-18 -216 0
-10 -226 0
-11 -227 0
-12 -228 0
-13 -229 0
-14 -230 0
-15 -231 0
-16 -232 0
-17 -233 0
-18 -234 0
-10 -154 0
-11 -155 0
-12 -156 0
-13 -157 0
-14 -158 0
-15 -159 0
-16 -160 0
-17 -161 0
-18 -162 0
-10 -55 0
-11 -56 0
-12 -57 0
-13 -58 0
-14 -59 0
-15 -60 0
-16 -61 0
-17 -62 0
-18 -63 0
-10 -172 0
-11 -173 0
-12 -174 0
-13 -175 0
-14 -176 0
-15 -177 0
-16 -178 0
-17 -179 0
-18 -180 0
-10 -127 0
-11 -128 0
-12 -129 0
-13 -130 0
-14 -131 0
-15 -132 0
-16 -133 0
-17 -134 0
-18 -135 0
-10 -82 0
-11 -83 0
-12 -84 0
-13 -85 0
-14 -86 0
-15 -87 0
-16 -88 0
-17 -89 0
-18 -90 0
-10 -46 0
-11 -47 0
-12 -48 0
-13 -49 0
-14 -50 0
-15 -51 0
-16 -52 0
-17 -53 0
-18 -54 0
-10 -28 0
-11 -29 0
-12 -30 0
-13 -31 0
-14 -32 0
-15 -33 0
-16 -34 0
-17 -35 0
-18 -36 0
-10 -190 0
-11 -191 0
-12 -192 0
-13 -193 0
-14 -194 0
-15 -195 0
-16 -196 0
-17 -197 0
-18 -198 0
-10 -118 0
-11 -119 0
-12 -120 0
-13 -121 0
-14 -122 0
-15 -123 0
-16 -124 0
-17 -125 0
-18 -126 0
-19 -37 0
-20 -38 0
-21 -39 0
-22 -40 0
-23 -41 0
-24 -42 0
-25 -43 0
-26 -44 0
-27 -45 0
-19 -208 0
-20 -209 0
-21 -210 0
-22 -211 0
-23 -212 0
-24 -213 0
-25 -214 0
-26 -215 0
-27 -216 0
-19 -64 0
-20 -65 0
-21 -66 0
-22 -67 0
-23 -68 0
-24 -69 0
-25 -70 0
-26 -71 0
-27 -72 0
-19 -82 0
-20 -83 0
-21 -84 0
-22 -85 0
-23 -86 0
-24 -87 0
-25 -88 0
-26 -89 0
-27 -90 0
-19 -181 0
-20 -182 0
-21 -183 0
-22 -184 0
-23 -185 0
-24 -186 0
-25 -187 0
-26 -188 0
-27 -189 0
-19 -91 0
-20 -92 0
-21 -93 0
-22 -94 0
-23 -95 0
-24 -96 0
-25 -97 0
-26 -98 0
-27 -99 0
-19 -163 0
-20 -164 0
-21 -165 0
-22 -166 0
-23 -167 0
-24 -168 0
-25 -169 0
-26 -170 0
-27 -171 0
-19 -109 0
-20 -110 0
-21 -111 0
-22 -112 0
-23 -113 0
-24 -114 0
-25 -115 0
-26 -116 0
-27 -117 0
-19 -145 0
-20 -146 0
-21 -147 0
-22 -148 0
-23 -149 0
-24 -150 0
-25 -151 0
-26 -152 0
-27 -153 0
-19 -46 0
-20 -47 0
-21 -48 0
-22 -49 0
-23 -50 0
-24 -51 0
-25 -52 0
-26 -53 0
-27 -54 0
-19 -28 0
-20 -29 0
-21 -30 0
-22 -31 0
-23 -32 0
-24 -33 0
-25 -34 0
-26 -35 0
-27 -36 0
-19 -73 0
-20 -74 0
-21 -75 0
-22 -76 0
-23 -77 0
-24 -78 0
-25 -79 0
-26 -80 0
-27 -81 0
-19 -100 0
-20 -101 0
-21 -102 0
-22 -103 0
-23 -104 0
-24 -105 0
-25 -106 0
-26 -107 0
-27 -108 0
-19 -118 0
-20 -119 0
-21 -120 0
-22 -121 0
-23 -122 0
-24 -123 0
-25 -124 0
-26 -125 0
-27 -126 0
-28 -172 0
-29 -173 0
-30 -174 0
-31 -175 0
-32 -176 0
-33 -177 0
-34 -178 0
-35 -179 0
-36 -180 0
-28 -127 0
-29 -128 0
-30 -129 0
-31 -130 0
-32 -131 0
-33 -132 0
-34 -133 0
-35 -134 0
-36 -135 0
-28 -217 0
-29 -218 0
-30 -219 0
-31 -220 0
-32 -221 0
-33 -222 0
-34 -223 0
-35 -224 0
-36 -225 0
-28 -82 0
-29 -83 0
-30 -84 0
-31 -85 0
-32 -86 0
-33 -87 0
-34 -88 0
-35 -89 0
-36 -90 0
-28 -181 0
-29 -182 0
-30 -183 0
-31 -184 0
-32 -185 0
-33 -186 0
-34 -187 0
-35 -188 0
-36 -189 0
-28 -163 0
-29 -164 0
-30 -165 0
-31 -166 0
-32 -167 0
-33 -168 0
-34 -169 0
-35 -170 0
-36 -171 0
-28 -109 0
-29 -110 0
-30 -111 0
-31 -112 0
-32 -113 0
-33 -114 0
-34 -115 0
-35 -116 0
-36 -117 0
-28 -145 0
-29 -146 0
-30 -147 0
-31 -148 0
-32 -149 0
-33 -150 0
-34 -151 0
-35 -152 0
-36 -153 0
-28 -46 0
-29 -47 0
-30 -48 0
-31 -49 0
-32 -50 0
-33 -51 0
-34 -52 0
-35 -53 0
-36 -54 0
-28 -190 0
-29 -191 0
-30 -192 0
-31 -193 0
-32 -194 0
-33 -195 0
-34 -196 0
-35 -197 0
-36 -198 0
-28 -118 0
-29 -119 0
-30 -120 0
-31 -121 0
-32 -122 0
-33 -123 0
-34 -124 0
-35 -125 0
-36 -126 0
-37 -199 0
-38 -200 0
-39 -201 0
-40 -202 0
-41 -203 0
-42 -204 0
-43 -205 0
-44 -206 0
-45 -207 0
-37 -208 0
-38 -209 0
-39 -210 0
-40 -211 0
-41 -212 0
-42 -213 0
-43 -214 0
-44 -215 0
-45 -216 0
-37 -226 0
-38 -227 0
-39 -228 0
-40 -229 0
-41 -230 0
-42 -231 0
-43 -232 0
-44 -233 0
-45 -234 0
-37 -73 0
-38 -74 0
-39 -75 0
-40 -76 0
-41 -77 0
-42 -78 0
-43 -79 0
-44 -80 0
-45 -81 0
-37 -100 0
-38 -101 0
-39 -102 0
-40 -103 0
-41 -104 0
-42 -105 0
-43 -106 0
-44 -107 0
-45 -108 0
-37 -154 0
-38 -155 0
-39 -156 0
-40 -157 0
-41 -158 0
-42 -159 0
-43 -160 0
-44 -161 0
-45 -162 0
-37 -55 0
-38 -56 0
-39 -57 0
-40 -58 0
-41 -59 0
-42 -60 0
-43 -61 0
-44 -62 0
-45 -63 0
-37 -64 0
-38 -65 0
-39 -66 0
-40 -67 0
-41 -68 0
-42 -69 0
-43 -70 0
-44 -71 0
-45 -72 0
-37 -82 0
-38 -83 0
-39 -84 0
-40 -85 0
-41 -86 0
-42 -87 0
-43 -88 0
-44 -89 0
-45 -90 0
-37 -91 0
-38 -92 0
-39 -93 0
-40 -94 0
-41 -95 0
-42 -96 0
-43 -97 0
-44 -98 0
-45 -99 0
-37 -118 0
-38 -119 0
-39 -120 0
-40 -121 0
-41 -122 0
-42 -123 0
-43 -124 0
-44 -125 0
-45 -126 0
-46 -199 0
-47 -200 0
-48 -201 0
-49 -202 0
-50 -203 0
-51 -204 0
-52 -205 0
-53 -206 0
-54 -207 0
-46 -208 0
-47 -209 0
-48 -210 0
-49 -211 0
-50 -212 0
-51 -213 0
-52 -214 0
-53 -215 0
-54 -216 0
-46 -127 0
-47 -128 0
-48 -129 0
-49 -130 0
-50 -131 0
-51 -132 0
-52 -133 0
-53 -134 0
-54 -135 0
-46 -82 0
-47 -83 0
-48 -84 0
-49 -85 0
-50 -86 0
-51 -87 0
-52 -88 0
-53 -89 0
-54 -90 0
-46 -163 0
-47 -164 0
-48 -165 0
-49 -166 0
-50 -167 0
-51 -168 0
-52 -169 0
-53 -170 0
-54 -171 0
-46 -109 0
-47 -110 0
-48 -111 0
-49 -112 0
-50 -113 0
-51 -114 0
-52 -115 0
-53 -116 0
-54 -117 0
-46 -145 0
-47 -146 0
-48 -147 0
-49 -148 0
-50 -149 0
-51 -150 0
-52 -151 0
-53 -152 0
-54 -153 0
-46 -118 0
-47 -119 0
-48 -120 0
-49 -121 0
-50 -122 0
-51 -123 0
-52 -124 0
-53 -125 0
-54 -126 0
-46 -73 0
-47 -74 0
-48 -75 0
-49 -76 0
-50 -77 0
-51 -78 0
-52 -79 0
-53 -80 0
-54 -81 0
-46 -190 0
-47 -191 0
-48 -192 0
-49 -193 0
-50 -194 0
-51 -195 0
-52 -196 0
-53 -197 0
-54 -198 0
-55 -199 0
-56 -200 0
-57 -201 0
-58 -202 0
-59 -203 0
-60 -204 0
-61 -205 0
-62 -206 0
-63 -207 0
-55 -226 0
-56 -227 0
-57 -228 0
-58 -229 0
-59 -230 0
-60 -231 0
-61 -232 0
-62 -233 0
-63 -234 0
-55 -154 0
-56 -155 0
-57 -156 0
-58 -157 0
-59 -158 0
-60 -159 0
-61 -160 0
-62 -161 0
-63 -162 0
-55 -172 0
-56 -173 0
-57 -174 0
-58 -175 0
-59 -176 0
-60 -177 0
-61 -178 0
-62 -179 0
-63 -180 0
-55 -136 0
-56 -137 0
-57 -138 0
-58 -139 0
-59 -140 0
-60 -141 0
-61 -142 0
-62 -143 0
-63 -144 0
-55 -64 0
-56 -65 0
-57 -66 0
-58 -67 0
-59 -68 0
-60 -69 0
-61 -70 0
-62 -71 0
-63 -72 0
-55 -100 0
-56 -101 0
-57 -102 0
-58 -103 0
-59 -104 0
-60 -105 0
-61 -106 0
-62 -107 0
-63 -108 0
-55 -127 0
-56 -128 0
-57 -129 0
-58 -130 0
-59 -131 0
-60 -132 0
-61 -133 0
-62 -134 0
-63 -135 0
-55 -217 0
-56 -218 0
-57 -219 0
-58 -220 0
-59 -221 0
-60 -222 0
-61 -223 0
-62 -224 0
-63 -225 0
-55 -181 0
-56 -182 0
-57 -183 0
-58 -184 0
-59 -185 0
-60 -186 0
-61 -187 0
-62 -188 0
-63 -189 0
-55 -91 0
-56 -92 0
-57 -93 0
-58 -94 0
-59 -95 0
-60 -96 0
-61 -97 0
-62 -98 0
-63 -99 0
-55 -73 0
-56 -74 0
-57 -75 0
-58 -76 0
-59 -77 0
-60 -78 0
-61 -79 0
-62 -80 0
-63 -81 0
-55 -190 0
-56 -191 0
-57 -192 0
-58 -193 0
-59 -194 0
-60 -195 0
-61 -196 0
-62 -197 0
-63 -198 0
-64 -226 0
-65 -227 0
-66 -228 0
-67 -229 0
-68 -230 0
-69 -231 0
-70 -232 0
-71 -233 0
-72 -234 0
-64 -154 0
-65 -155 0
-66 -156 0
-67 -157 0
-68 -158 0
-69 -159 0
-70 -160 0
-71 -161 0
-72 -162 0
-64 -172 0
-65 -173 0
-66 -174 0
-67 -175 0
-68 -176 0
-69 -177 0
-70 -178 0
-71 -179 0
-72 -180 0
-64 -136 0
-65 -137 0
-66 -138 0
-67 -139 0
-68 -140 0
-69 -141 0
-70 -142 0
-71 -143 0
-72 -144 0
-64 -217 0
-65 -218 0
-66 -219 0
-67 -220 0
-68 -221 0
-69 -222 0
-70 -223 0
-71 -224 0
-72 -225 0
-64 -181 0
-65 -182 0
-66 -183 0
-67 -184 0
-68 -185 0
-69 -186 0
-70 -187 0
-71 -188 0
-72 -189 0
-64 -91 0
-65 -92 0
-66 -93 0
-67 -94 0
-68 -95 0
-69 -96 0
-70 -97 0
-71 -98 0
-72 -99 0
-64 -100 0
-65 -101 0
-66 -102 0
-67 -103 0
-68 -104 0
-69 -105 0
-70 -106 0
-71 -107 0
-72 -108 0
-64 -163 0
-65 -164 0
-66 -165 0
-67 -166 0
-68 -167 0
-69 -168 0
-70 -169 0
-71 -170 0
-72 -171 0
-64 -109 0
-65 -110 0
-66 -111 0
-67 -112 0
-68 -113 0
-69 -114 0
-70 -115 0
-71 -116 0
-72 -117 0
-64 -73 0
-65 -74 0
-66 -75 0
-67 -76 0
-68 -77 0
-69 -78 0
-70 -79 0
-71 -80 0
-72 -81 0
-73 -199 0
-74 -200 0
-75 -201 0
-76 -202 0
-77 -203 0
-78 -204 0
-79 -205 0
-80 -206 0
-81 -207 0
-73 -208 0
-74 -209 0
-75 -210 0
-76 -211 0
-77 -212 0
-78 -213 0
-79 -214 0
-80 -215 0
-81 -216 0
-73 -226 0
-74 -227 0
-75 -228 0
-76 -229 0
-77 -230 0
-78 -231 0
-79 -232 0
-80 -233 0
-81 -234 0
-73 -82 0
-74 -83 0
-75 -84 0
-76 -85 0
-77 -86 0
-78 -87 0
-79 -88 0
-80 -89 0
-81 -90 0
-73 -181 0
-74 -182 0
-75 -183 0
-76 -184 0
-77 -185 0
-78 -186 0
-79 -187 0
-80 -188 0
-81 -189 0
-73 -91 0
-74 -92 0
-75 -93 0
-76 -94 0
-77 -95 0
-78 -96 0
-79 -97 0
-80 -98 0
-81 -99 0
-73 -163 0
-74 -164 0
-75 -165 0
-76 -166 0
-77 -167 0
-78 -168 0
-79 -169 0
-80 -170 0
-81 -171 0
-73 -145 0
-74 -146 0
-75 -147 0
-76 -148 0
-77 -149 0
-78 -150 0
-79 -151 0
-80 -152 0
-81 -153 0
-73 -100 0
-74 -101 0
-75 -102 0
-76 -103 0
-77 -104 0
-78 -105 0
-79 -106 0
-80 -107 0
-81 -108 0
-73 -118 0
-74 -119 0
-75 -120 0
-76 -121 0
-77 -122 0
-78 -123 0
-79 -124 0
-80 -125 0
-81 -126 0
-82 -199 0
-83 -200 0
-84 -201 0
-85 -202 0
-86 -203 0
-87 -204 0
-88 -205 0
-89 -206 0
-90 -207 0
-82 -208 0
-83 -209 0
-84 -210 0
-85 -211 0
-86 -212 0
-87 -213 0
-88 -214 0
-89 -215 0
-90 -216 0
-82 -226 0
-83 -227 0
-84 -228 0
-85 -229 0
-86 -230 0
-87 -231 0
-88 -232 0
-89 -233 0
-90 -234 0
-82 -154 0
-83 -155 0
-84 -156 0
-85 -157 0
-86 -158 0
-87 -159 0
-88 -160 0
-89 -161 0
-90 -162 0
-82 -127 0
-83 -128 0
-84 -129 0
-85 -130 0
-86 -131 0
-87 -132 0
-88 -133 0
-89 -134 0
-90 -135 0
-82 -118 0
-83 -119 0
-84 -120 0
-85 -121 0
-86 -122 0
-87 -123 0
-88 -124 0
-89 -125 0
-90 -126 0
-82 -145 0
-83 -146 0
-84 -147 0
-85 -148 0
-86 -149 0
-87 -150 0
-88 -151 0
-89 -152 0
-90 -153 0
-82 -190 0
-83 -191 0
-84 -192 0
-85 -193 0
-86 -194 0
-87 -195 0
-88 -196 0
-89 -197 0
-90 -198 0
-91 -208 0
-92 -209 0
-93 -210 0
-94 -211 0
-95 -212 0
-96 -213 0
-97 -214 0
-98 -215 0
-99 -216 0
-91 -226 0
-92 -227 0
-93 -228 0
-94 -229 0
-95 -230 0
-96 -231 0
-97 -232 0
-98 -233 0
-99 -234 0
-91 -136 0
-92 -137 0
-93 -138 0
-94 -139 0
-95 -140 0
-96 -141 0
-97 -142 0
-98 -143 0
-99 -144 0
-91 -217 0
-92 -218 0
-93 -219 0
-94 -220 0
-95 -221 0
-96 -222 0
-97 -223 0
-98 -224 0
-99 -225 0
-91 -181 0
-92 -182 0
-93 -183 0
-94 -184 0
-95 -185 0
-96 -186 0
-97 -187 0
-98 -188 0
-99 -189 0
-91 -163 0
-92 -164 0
-93 -165 0
-94 -166 0
-95 -167 0
-96 -168 0
-97 -169 0
-98 -170 0
-99 -171 0
-91 -100 0
-92 -101 0
-93 -102 0
-94 -103 0
-95 -104 0
-96 -105 0
-97 -106 0
-98 -107 0
-99 -108 0
-91 -109 0
-92 -110 0
-93 -111 0
-94 -112 0
-95 -113 0
-96 -114 0
-97 -115 0
-98 -116 0
-99 -117 0
-91 -145 0
-92 -146 0
-93 -147 0
-94 -148 0
-95 -149 0
-96 -150 0
-97 -151 0
-98 -152 0
-99 -153 0
-91 -118 0
-92 -119 0
-93 -120 0
-94 -121 0
-95 -122 0
-96 -123 0
-97 -124 0
-98 -125 0
-99 -126 0
-100 -199 0
-101 -200 0
-102 -201 0
-103 -202 0
-104 -203 0
-105 -204 0
-106 -205 0
-107 -206 0
-108 -207 0
-100 -208 0
-101 -209 0
-102 -210 0
-103 -211 0
-104 -212 0
-105 -213 0
-106 -214 0
-107 -215 0
-108 -216 0
-100 -226 0
-101 -227 0
-102 -228 0
-103 -229 0
-104 -230 0
-105 -231 0
-106 -232 0
-107 -233 0
-108 -234 0
-100 -154 0
-101 -155 0
-102 -156 0
-103 -157 0
-104 -158 0
-105 -159 0
-106 -160 0
-107 -161 0
-108 -162 0
-100 -172 0
-101 -173 0
-102 -174 0
-103 -175 0
-104 -176 0
-105 -177 0
-106 -178 0
-107 -179 0
-108 -180 0
-100 -136 0
-101 -137 0
-102 -138 0
-103 -139 0
-104 -140 0
-105 -141 0
-106 -142 0
-107 -143 0
-108 -144 0
-100 -181 0
-101 -182 0
-102 -183 0
-103 -184 0
-104 -185 0
-105 -186 0
-106 -187 0
-107 -188 0
-108 -189 0
-100 -163 0
-101 -164 0
-102 -165 0
-103 -166 0
-104 -167 0
-105 -168 0
-106 -169 0
-107 -170 0
-108 -171 0
-100 -118 0
-101 -119 0
-102 -120 0
-103 -121 0
-104 -122 0
-105 -123 0
-106 -124 0
-107 -125 0
-108 -126 0
-109 -172 0
-110 -173 0
-111 -174 0
-112 -175 0
-113 -176 0
-114 -177 0
-115 -178 0
-116 -179 0
-117 -180 0
-109 -127 0
-110 -128 0
-111 -129 0
-112 -130 0
-113 -131 0
-114 -132 0
-115 -133 0
-116 -134 0
-117 -135 0
-109 -136 0
-110 -137 0
-111 -138 0
-112 -139 0
-113 -140 0
-114 -141 0
-115 -142 0
-116 -143 0
-117 -144 0
-109 -217 0
-110 -218 0
-111 -219 0
-112 -220 0
-113 -221 0
-114 -222 0
-115 -223 0
-116 -224 0
-117 -225 0
-109 -181 0
-110 -182 0
-111 -183 0
-112 -184 0
-113 -185 0
-114 -186 0
-115 -187 0
-116 -188 0
-117 -189 0
-109 -163 0
-110 -164 0
-111 -165 0
-112 -166 0
-113 -167 0
-114 -168 0
-115 -169 0
-116 -170 0
-117 -171 0
-109 -145 0
-110 -146 0
-111 -147 0
-112 -148 0
-113 -149 0
-114 -150 0
-115 -151 0
-116 -152 0
-117 -153 0
-109 -190 0
-110 -191 0
-111 -192 0
-112 -193 0
-113 -194 0
-114 -195 0
-115 -196 0
-116 -197 0
-117 -198 0
-109 -118 0
-110 -119 0
-111 -120 0
-112 -121 0
-113 -122 0
-114 -123 0
-115 -124 0
-116 -125 0
-117 -126 0
-118 -199 0
-119 -200 0
-120 -201 0
-121 -202 0
-122 -203 0
-123 -204 0
-124 -205 0
-125 -206 0
-126 -207 0
-118 -208 0
-119 -209 0
-120 -210 0
-121 -211 0
-122 -212 0
-123 -213 0
-124 -214 0
-125 -215 0
-126 -216 0
-118 -163 0
-119 -164 0
-120 -165 0
-121 -166 0
-122 -167 0
-123 -168 0
-124 -169 0
-125 -170 0
-126 -171 0
-118 -145 0
-119 -146 0
-120 -147 0
-121 -148 0
-122 -149 0
-123 -150 0
-124 -151 0
-125 -152 0
-126 -153 0
-127 -199 0
-128 -200 0
-129 -201 0
-130 -202 0
-131 -203 0
-132 -204 0
-133 -205 0
-134 -206 0
-135 -207 0
-127 -226 0
-128 -227 0
-129 -228 0
-130 -229 0
-131 -230 0
-132 -231 0
-133 -232 0
-134 -233 0
-135 -234 0
-127 -154 0
-128 -155 0
-129 -156 0
-130 -157 0
-131 -158 0
-132 -159 0
-133 -160 0
-134 -161 0
-135 -162 0
-127 -172 0
-128 -173 0
-129 -174 0
-130 -175 0
-131 -176 0
-132 -177 0
-133 -178 0
-134 -179 0
-135 -180 0
-127 -190 0
-128 -191 0
-129 -192 0
-130 -193 0
-131 -194 0
-132 -195 0
-133 -196 0
-134 -197 0
-135 -198 0
-127 -136 0
-128 -137 0
-129 -138 0
-130 -139 0
-131 -140 0
-132 -141 0
-133 -142 0
-134 -143 0
-135 -144 0
-127 -217 0
-128 -218 0
-129 -219 0
-130 -220 0
-131 -221 0
-132 -222 0
-133 -223 0
-134 -224 0
-135 -225 0
-136 -226 0
-137 -227 0
-138 -228 0
-139 -229 0
-140 -230 0
-141 -231 0
-142 -232 0
-143 -233 0
-144 -234 0
-136 -154 0
-137 -155 0
-138 -156 0
-139 -157 0
-140 -158 0
-141 -159 0
-142 -160 0
-143 -161 0
-144 -162 0
-136 -172 0
-137 -173 0
-138 -174 0
-139 -175 0
-140 -176 0
-141 -177 0
-142 -178 0
-143 -179 0
-144 -180 0
-136 -217 0
-137 -218 0
-138 -219 0
-139 -220 0
-140 -221 0
-141 -222 0
-142 -223 0
-143 -224 0
-144 -225 0
-136 -181 0
-137 -182 0
-138 -183 0
-139 -184 0
-140 -185 0
-141 -186 0
-142 -187 0
-143 -188 0
-144 -189 0
-136 -163 0
-137 -164 0
-138 -165 0
-139 -166 0
-140 -167 0
-141 -168 0
-142 -169 0
-143 -170 0
-144 -171 0
-136 -190 0
-137 -191 0
-138 -192 0
-139 -193 0
-140 -194 0
-141 -195 0
-142 -196 0
-143 -197 0
-144 -198 0
-145 -208 0
-146 -209 0
-147 -210 0
-148 -211 0
-149 -212 0
-150 -213 0
-151 -214 0
-152 -215 0
-153 -216 0
-145 -217 0
-146 -218 0
-147 -219 0
-148 -220 0
-149 -221 0
-150 -222 0
-151 -223 0
-152 -224 0
-153 -225 0
-145 -181 0
-146 -182 0
-147 -183 0
-148 -184 0
-149 -185 0
-150 -186 0
-151 -187 0
-152 -188 0
-153 -189 0
-145 -163 0
-146 -164 0
-147 -165 0
-148 -166 0
-149 -167 0
-150 -168 0
-151 -169 0
-152 -170 0
-153 -171 0
-145 -190 0
-146 -191 0
-147 -192 0
-148 -193 0
-149 -194 0
-150 -195 0
-151 -196 0
-152 -197 0
-153 -198 0
-154 -199 0
-155 -200 0
-156 -201 0
-157 -202 0
-158 -203 0
-159 -204 0
-160 -205 0
-161 -206 0
-162 -207 0
-154 -208 0
-155 -209 0
-156 -210 0
-157 -211 0
-158 -212 0
-159 -213 0
-160 -214 0
-161 -215 0
-162 -216 0
-154 -226 0
-155 -227 0
-156 -228 0
-157 -229 0
-158 -230 0
-159 -231 0
-160 -232 0
-161 -233 0
-162 -234 0
-154 -172 0
-155 -173 0
-156 -174 0
-157 -175 0
-158 -176 0
-159 -177 0
-160 -178 0
-161 -179 0
-162 -180 0
-154 -217 0
-155 -218 0
-156 -219 0
-157 -220 0
-158 -221 0
-159 -222 0
-160 -223 0
-161 -224 0
-162 -225 0
-154 -190 0
-155 -191 0
-156 -192 0
-157 -193 0
-158 -194 0
-159 -195 0
-160 -196 0
-161 -197 0
-162 -198 0
-163 -217 0
-164 -218 0
-165 -219 0
-166 -220 0
-167 -221 0
-168 -222 0
-169 -223 0
-170 -224 0
-171 -225 0
-163 -181 0
-164 -182 0
-165 -183 0
-166 -184 0
-167 -185 0
-168 -186 0
-169 -187 0
-170 -188 0
-171 -189 0
-163 -190 0
-164 -191 0
-165 -192 0
-166 -193 0
-167 -194 0
-168 -195 0
-169 -196 0
-170 -197 0
-171 -198 0
-172 -199 0
-173 -200 0
-174 -201 0
-175 -202 0
-176 -203 0
-177 -204 0
-178 -205 0
-179 -206 0
-180 -207 0
-172 -226 0
-173 -227 0
-174 -228 0
-175 -229 0
-176 -230 0
-177 -231 0
-178 -232 0
-179 -233 0
-180 -234 0
-172 -217 0
-173 -218 0
-174 -219 0
-175 -220 0
-176 -221 0
-177 -222 0
-178 -223 0
-179 -224 0
-180 -225 0
-172 -190 0
-173 -191 0
-174 -192 0
-175 -193 0
-176 -194 0
-177 -195 0
-178 -196 0
-179 -197 0
-180 -198 0
-172 -181 0
-173 -182 0
-174 -183 0
-175 -184 0
-176 -185 0
-177 -186 0
-178 -187 0
-179 -188 0
-180 -189 0
-181 -217 0
-182 -218 0
-183 -219 0
-184 -220 0
-185 -221 0
-186 -222 0
-187 -223 0
-188 -224 0
-189 -225 0
-181 -190 0
-182 -191 0
-183 -192 0
-184 -193 0
-185 -194 0
-186 -195 0
-187 -196 0
-188 -197 0
-189 -198 0
-190 -217 0
-191 -218 0
-192 -219 0
-193 -220 0
-194 -221 0
-195 -222 0
-196 -223 0
-197 -224 0
-198 -225 0
-199 -208 0
-200 -209 0
-201 -210 0
-202 -211 0
-203 -212 0
-204 -213 0
-205 -214 0
-206 -215 0
-207 -216 0
-199 -226 0
-200 -227 0
-201 -228 0
-202 -229 0
-203 -230 0
-204 -231 0
-205 -232 0
-206 -233 0
-207 -234 0
-208 -226 0
-209 -227 0
-210 -228 0
-211 -229 0
-212 -230 0
-213 -231 0
-214 -232 0
-215 -233 0
-216 -234 0
1 2 3 4 5 6 7 8 9 0
-1 -2 0
-1 -3 0
-1 -4 0
-1 -5 0
-1 -6 0
-1 -7 0
-1 -8 0
-1 -9 0
-2 -3 0
-2 -4 0
-2 -5 0
-2 -6 0
-2 -7 0
-2 -8 0
-2 -9 0
-3 -4 0
-3 -5 0
-3 -6 0
-3 -7 0
-3 -8 0
-3 -9 0
-4 -5 0
-4 -6 0
-4 -7 0
-4 -8 0
-4 -9 0
-5 -6 0
-5 -7 0
-5 -8 0
-5 -9 0
-6 -7 0
-6 -8 0
-6 -9 0
-7 -8 0
-7 -9 0
-8 -9 0
10 11 12 13 14 15 16 17 18 0
-10 -11 0
-10 -12 0
-10 -13 0
-10 -14 0
-10 -15 0
-10 -16 0
-10 -17 0
-10 -18 0
-11 -12 0
-11 -13 0
-11 -14 0
-11 -15 0
-11 -16 0
-11 -17 0
-11 -18 0
-12 -13 0
-12 -14 0
-12 -15 0
-12 -16 0
-12 -17 0
-12 -18 0
-13 -14 0
-13 -15 0
-13 -16 0
-13 -17 0
-13 -18 0
-14 -15 0
-14 -16 0
-14 -17 0
-14 -18 0
-15 -16 0
-15 -17 0
-15 -18 0
-16 -17 0
-16 -18 0
-17 -18 0
19 20 21 22 23 24 25 26 27 0
-19 -20 0
-19 -21 0
-19 -22 0
-19 -23 0
-19 -24 0
-19 -25 0
-19 -26 0
-19 -27 0
-20 -21 0
-20 -22 0
-20 -23 0
-20 -24 0
-20 -25 0
-20 -26 0
-20 -27 0
-21 -22 0
-21 -23 0
-21 -24 0
-21 -25 0
-21 -26 0
-21 -27 0
-22 -23 0
-22 -24 0
-22 -25 0
-22 -26 0
-22 -27 0
-23 -24 0
-23 -25 0
-23 -26 0
-23 -27 0
-24 -25 0
-24 -26 0
-24 -27 0
-25 -26 0
-25 -27 0
-26 -27 0
28 29 30 31 32 33 34 35 36 0
-28 -29 0
-28 -30 0
-28 -31 0
-28 -32 0
-28 -33 0
-28 -34 0
-28 -35 0
-28 -36 0
-29 -30 0
-29 -31 0
-29 -32 0
-29 -33 0
-29 -34 0
-29 -35 0
-29 -36 0
-30 -31 0
-30 -32 0
-30 -33 0
-30 -34 0
-30 -35 0
-30 -36 0
-31 -32 0
-31 -33 0
-31 -34 0
-31 -35 0
-31 -36 0
-32 -33 0
-32 -34 0
-32 -35 0
-32 -36 0
-33 -34 0
-33 -35 0
-33 -36 0
-34 -35 0
-34 -36 0
-35 -36 0
37 38 39 40 41 42 43 44 45 0
-37 -38 0
-37 -39 0
-37 -40 0
-37 -41 0
-37 -42 0
-37 -43 0
-37 -44 0
-37 -45 0
-38 -39 0
-38 -40 0
-38 -41 0
-38 -42 0
-38 -43 0
-38 -44 0
-38 -45 0
-39 -40 0
-39 -41 0
-39 -42 0
-39 -43 0
-39 -44 0
-39 -45 0
-40 -41 0
-40 -42 0
-40 -43 0
-40 -44 0
-40 -45 0
-41 -42 0
-41 -43 0
-41 -44 0
-41 -45 0
-42 -43 0
-42 -44 0
-42 -45 0
-43 -44 0
-43 -45 0
-44 -45 0
46 47 48 49 50 51 52 53 54 0
-46 -47 0
-46 -48 0
-46 -49 0
-46 -50 0
-46 -51 0
-46 -52 0
-46 -53 0
-46 -54 0
-47 -48 0
-47 -49 0
-47 -50 0
-47 -51 0
-47 -52 0
-47 -53 0
-47 -54 0
-48 -49 0
-48 -50 0
-48 -51 0
-48 -52 0
-48 -53 0
-48 -54 0
-49 -50 0
-49 -51 0
-49 -52 0
-49 -53 0
-49 -54 0
-50 -51 0
-50 -52 0
-50 -53 0
-50 -54 0
-51 -52 0
-51 -53 0
-51 -54 0
-52 -53 0
-52 -54 0
-53 -54 0
55 56 57 58 59 60 61 62 63 0
-55 -56 0
-55 -57 0
-55 -58 0
-55 -59 0
-55 -60 0
-55 -61 0
-55 -62 0
-55 -63 0
-56 -57 0
-56 -58 0
-56 -59 0
-56 -60 0
-56 -61 0
-56 -62 0
-56 -63 0
-57 -58 0
-57 -59 0
-57 -60 0
-57 -61 0
-57 -62 0
-57 -63 0
-58 -59 0
-58 -60 0
-58 -61 0
-58 -62 0
-58 -63 0
-59 -60 0
-59 -61 0
-59 -62 0
-59 -63 0
-60 -61 0
-60 -62 0
-60 -63 0
-61 -62 0
-61 -63 0
-62 -63 0
64 65 66 67 68 69 70 71 72 0
-64 -65 0
-64 -66 0
-64 -67 0
-64 -68 0
-64 -69 0
-64 -70 0
-64 -71 0
-64 -72 0
-65 -66 0
-65 -67 0
-65 -68 0
-65 -69 0
-65 -70 0
-65 -71 0
-65 -72 0
-66 -67 0
-66 -68 0
-66 -69 0
-66 -70 0
-66 -71 0
-66 -72 0
-67 -68 0
-67 -69 0
-67 -70 0
-67 -71 0
-67 -72 0
-68 -69 0
-68 -70 0
-68 -71 0
-68 -72 0
-69 -70 0
-69 -71 0
-69 -72 0
-70 -71 0
-70 -72 0
-71 -72 0
73 74 75 76 77 78 79 80 81 0
-73 -74 0
-73 -75 0
-73 -76 0
-73 -77 0
-73 -78 0
-73 -79 0
-73 -80 0
-73 -81 0
-74 -75 0
-74 -76 0
-74 -77 0
-74 -78 0
-74 -79 0
-74 -80 0
-74 -81 0
-75 -76 0
-75 -77 0
-75 -78 0
-75 -79 0
-75 -80 0
-75 -81 0
-76 -77 0
-76 -78 0
-76 -79 0
-76 -80 0
-76 -81 0
-77 -78 0
-77 -79 0
-77 -80 0
-77 -81 0
-78 -79 0
-78 -80 0
-78 -81 0
-79 -80 0
-79 -81 0
-80 -81 0
82 83 84 85 86 87 88 89 90 0
-82 -83 0
-82 -84 0
-82 -85 0
-82 -86 0
-82 -87 0
-82 -88 0
-82 -89 0
-82 -90 0
-83 -84 0
-83 -85 0
-83 -86 0
-83 -87 0
-83 -88 0
-83 -89 0
-83 -90 0
-84 -85 0
-84 -86 0
-84 -87 0
-84 -88 0
-84 -89 0
-84 -90 0
-85 -86 0
-85 -87 0
-85 -88 0
-85 -89 0
-85 -90 0
-86 -87 0
-86 -88 0
-86 -89 0
-86 -90 0
-87 -88 0
-87 -89 0
-87 -90 0
-88 -89 0
-88 -90 0
-89 -90 0
91 92 93 94 95 96 97 98 99 0
-91 -92 0
-91 -93 0
-91 -94 0
-91 -95 0
-91 -96 0
-91 -97 0
-91 -98 0
-91 -99 0
-92 -93 0
-92 -94 0
-92 -95 0
-92 -96 0
-92 -97 0
-92 -98 0
-92 -99 0
-93 -94 0
-93 -95 0
-93 -96 0
-93 -97 0
-93 -98 0
-93 -99 0
-94 -95 0
-94 -96 0
-94 -97 0
-94 -98 0
-94 -99 0
-95 -96 0
-95 -97 0
-95 -98 0
-95 -99 0
-96 -97 0
-96 -98 0
-96 -99 0
-97 -98 0
-97 -99 0
-98 -99 0
100 101 102 103 104 105 106 107 108 0
-100 -101 0
-100 -102 0
-100 -103 0
-100 -104 0
-100 -105 0
-100 -106 0
-100 -107 0
-100 -108 0
-101 -102 0
-101 -103 0
-101 -104 0
-101 -105 0
-101 -106 0
-101 -107 0
-101 -108 0
-102 -103 0
-102 -104 0
-102 -105 0
-102 -106 0
-102 -107 0
-102 -108 0
-103 -104 0
-103 -105 0
-103 -106 0
-103 -107 0
-103 -108 0
-104 -105 0
-104 -106 0
-104 -107 0
-104 -108 0
-105 -106 0
-105 -107 0
-105 -108 0
-106 -107 0
-106 -108 0
-107 -108 0
109 110 111 112 113 114 115 116 117 0
-109 -110 0
-109 -111 0
-109 -112 0
-109 -113 0
-109 -114 0
-109 -115 0
-109 -116 0
-109 -117 0
-110 -111 0
-110 -112 0
-110 -113 0
-110 -114 0
-110 -115 0
-110 -116 0
-110 -117 0
-111 -112 0
-111 -113 0
-111 -114 0
-111 -115 0
-111 -116 0
-111 -117 0
-112 -113 0
-112 -114 0
-112 -115 0
-112 -116 0
-112 -117 0
-113 -114 0
-113 -115 0
-113 -116 0
-113 -117 0
-114 -115 0
-114 -116 0
-114 -117 0
-115 -116 0
-115 -117 0
-116 -117 0
118 119 120 121 122 123 124 125 126 0
-118 -119 0
-118 -120 0
-118 -121 0
-118 -122 0
-118 -123 0
-118 -124 0
-118 -125 0
-118 -126 0
-119 -120 0
-119 -121 0
-119 -122 0
-119 -123 0
-119 -124 0
-119 -125 0
-119 -126 0
-120 -121 0
-120 -122 0
-120 -123 0
-120 -124 0
-120 -125 0
-120 -126 0
-121 -122 0
-121 -123 0
-121 -124 0
-121 -125 0
-121 -126 0
-122 -123 0
-122 -124 0
-122 -125 0
-122 -126 0
-123 -124 0
-123 -125 0
-123 -126 0
-124 -125 0
-124 -126 0
-125 -126 0
127 128 129 130 131 132 133 134 135 0
-127 -128 0
-127 -129 0
-127 -130 0
-127 -131 0
-127 -132 0
-127 -133 0
-127 -134 0
-127 -135 0
-128 -129 0
-128 -130 0
-128 -131 0
-128 -132 0
-128 -133 0
-128 -134 0
-128 -135 0
-129 -130 0
-129 -131 0
-129 -132 0
-129 -133 0
-129 -134 0
-129 -135 0
-130 -131 0
-130 -132 0
-130 -133 0
-130 -134 0
-130 -135 0
-131 -132 0
-131 -133 0
-131 -134 0
-131 -135 0
-132 -133 0
-132 -134 0
-132 -135 0
-133 -134 0
-133 -135 0
-134 -135 0
136 137 138 139 140 141 142 143 144 0
-136 -137 0
-136 -138 0
-136 -139 0
-136 -140 0
-136 -141 0
-136 -142 0
-136 -143 0
-136 -144 0
-137 -138 0
-137 -139 0
-137 -140 0
-137 -141 0
-137 -142 0
-137 -143 0
-137 -144 0
-138 -139 0
-138 -140 0
-138 -141 0
-138 -142 0
-138 -143 0
-138 -144 0
-139 -140 0
-139 -141 0
-139 -142 0
-139 -143 0
-139 -144 0
-140 -141 0
-140 -142 0
-140 -143 0
-140 -144 0
-141 -142 0
-141 -143 0
-141 -144 0
-142 -143 0
-142 -144 0
-143 -144 0
145 146 147 148 149 150 151 152 153 0
-145 -146 0
-145 -147 0
-145 -148 0
-145 -149 0
-145 -150 0
-145 -151 0
-145 -152 0
-145 -153 0
-146 -147 0
-146 -148 0
-146 -149 0
-146 -150 0
-146 -151 0
-146 -152 0
-146 -153 0
-147 -148 0
-147 -149 0
-147 -150 0
-147 -151 0
-147 -152 0
-147 -153 0
-148 -149 0
-148 -150 0
-148 -151 0
-148 -152 0
-148 -153 0
-149 -150 0
-149 -151 0
-149 -152 0
-149 -153 0
-150 -151 0
-150 -152 0
-150 -153 0
-151 -152 0
-151 -153 0
-152 -153 0
154 155 156 157 158 159 160 161 162 0
-154 -155 0
-154 -156 0
-154 -157 0
-154 -158 0
-154 -159 0
-154 -160 0
-154 -161 0
-154 -162 0
-155 -156 0
-155 -157 0
-155 -158 0
-155 -159 0
-155 -160 0
-155 -161 0
-155 -162 0
-156 -157 0
-156 -158 0
-156 -159 0
-156 -160 0
-156 -161 0
-156 -162 0
-157 -158 0
-157 -159 0
-157 -160 0
-157 -161 0
-157 -162 0
-158 -159 0
-158 -160 0
-158 -161 0
-158 -162 0
-159 -160 0
-159 -161 0
-159 -162 0
-160 -161 0
-160 -162 0
-161 -162 0
163 164 165 166 167 168 169 170 171 0
-163 -164 0
-163 -165 0
-163 -166 0
-163 -167 0
-163 -168 0
-163 -169 0
-163 -170 0
-163 -171 0
-164 -165 0
-164 -166 0
-164 -167 0
-164 -168 0
-164 -169 0
-164 -170 0
-164 -171 0
-165 -166 0
-165 -167 0
-165 -168 0
-165 -169 0
-165 -170 0
-165 -171 0
-166 -167 0
-166 -168 0
-166 -169 0
-166 -170 0
-166 -171 0
-167 -168 0
-167 -169 0
-167 -170 0
-167 -171 0
-168 -169 0
-168 -170 0
-168 -171 0
-169 -170 0
-169 -171 0
-170 -171 0
172 173 174 175 176 177 178 179 180 0
-172 -173 0
-172 -174 0
-172 -175 0
-172 -176 0
-172 -177 0
-172 -178 0
-172 -179 0
-172 -180 0
-173 -174 0
-173 -175 0
-173 -176 0
-173 -177 0
-173 -178 0
-173 -179 0
-173 -180 0
-174 -175 0
-174 -176 0
-174 -177 0
-174 -178 0
-174 -179 0
-174 -180 0
-175 -176 0
-175 -177 0
-175 -178 0
-175 -179 0
-175 -180 0
-176 -177 0
-176 -178 0
-176 -179 0
-176 -180 0
-177 -178 0
-177 -179 0
-177 -180 0
-178 -179 0
-178 -180 0
-179 -180 0
181 182 183 184 185 186 187 188 189 0
-181 -182 0
-181 -183 0
-181 -184 0
-181 -185 0
-181 -186 0
-181 -187 0
-181 -188 0
-181 -189 0
-182 -183 0
-182 -184 0
-182 -185 0
-182 -186 0
-182 -187 0
-182 -188 0
-182 -189 0
-183 -184 0
-183 -185 0
-183 -186 0
-183 -187 0
-183 -188 0
-183 -189 0
-184 -185 0
-184 -186 0
-184 -187 0
-184 -188 0
-184 -189 0
-185 -186 0
-185 -187 0
-185 -188 0
-185 -189 0
-186 -187 0
-186 -188 0
-186 -189 0
-187 -188 0
-187 -189 0
-188 -189 0
190 191 192 193 194 195 196 197 198 0
-190 -191 0
-190 -192 0
-190 -193 0
-190 -194 0
-190 -195 0
-190 -196 0
-190 -197 0
-190 -198 0
-191 -192 0
-191 -193 0
-191 -194 0
-191 -195 0
-191 -196 0
-191 -197 0
-191 -198 0
-192 -193 0
-192 -194 0
-192 -195 0
-192 -196 0
-192 -197 0
-192 -198 0
-193 -194 0
-193 -195 0
-193 -196 0
-193 -197 0
-193 -198 0
-194 -195 0
-194 -196 0
-194 -197 0
-194 -198 0
-195 -196 0
-195 -197 0
-195 -198 0
-196 -197 0
-196 -198 0
-197 -198 0
199 200 201 202 203 204 205 206 207 0
-199 -200 0
-199 -201 0
-199 -202 0
-199 -203 0
-199 -204 0
-199 -205 0
-199 -206 0
-199 -207 0
-200 -201 0
-200 -202 0
-200 -203 0
-200 -204 0
-200 -205 0
-200 -206 0
-200 -207 0
-201 -202 0
-201 -203 0
-201 -204 0
-201 -205 0
-201 -206 0
-201 -207 0
-202 -203 0
-202 -204 0
-202 -205 0
-202 -206 0
-202 -207 0
-203 -204 0
-203 -205 0
-203 -206 0
-203 -207 0
-204 -205 0
-204 -206 0
-204 -207 0
-205 -206 0
-205 -207 0
-206 -207 0
208 209 210 211 212 213 214 215 216 0
-208 -209 0
-208 -210 0
-208 -211 0
-208 -212 0
-208 -213 0
-208 -214 0
-208 -215 0
-208 -216 0
-209 -210 0
-209 -211 0
-209 -212 0
-209 -213 0
-209 -214 0
-209 -215 0
-209 -216 0
-210 -211 0
-210 -212 0
-210 -213 0
-210 -214 0
-210 -215 0
-210 -216 0
-211 -212 0
-211 -213 0
-211 -214 0
-211 -215 0
-211 -216 0
-212 -213 0
-212 -214 0
-212 -215 0
-212 -216 0
-213 -214 0
-213 -215 0
-213 -216 0
-214 -215 0
-214 -216 0
-215 -216 0
217 218 219 220 221 222 223 224 225 0
-217 -218 0
-217 -219 0
-217 -220 0
-217 -221 0
-217 -222 0
-217 -223 0
-217 -224 0
-217 -225 0
-218 -219 0
-218 -220 0
-218 -221 0
-218 -222 0
-218 -223 0
-218 -224 0
-218 -225 0
-219 -220 0
-219 -221 0
-219 -222 0
-219 -223 0
-219 -224 0
-219 -225 0
-220 -221 0
-220 -222 0
-220 -223 0
-220 -224 0
-220 -225 0
-221 -222 0
-221 -223 0
-221 -224 0
-221 -225 0
-222 -223 0
-222 -224 0
-222 -225 0
-223 -224 0
-223 -225 0
-224 -225 0
226 227 228 229 230 231 232 233 234 0
-226 -227 0
-226 -228 0
-226 -229 0
-226 -230 0
-226 -231 0
-226 -232 0
-226 -233 0
-226 -234 0
-227 -228 0
-227 -229 0
-227 -230 0
-227 -231 0
-227 -232 0
-227 -233 0
-227 -234 0
-228 -229 0
-228 -230 0
-228 -231 0
-228 -232 0
-228 -233 0
-228 -234 0
-229 -230 0
-229 -231 0
-229 -232 0
-229 -233 0
-229 -234 0
-230 -231 0
-230 -232 0
-230 -233 0
-230 -234 0
-231 -232 0
-231 -233 0
-231 -234 0
-232 -233 0
-232 -234 0
-233 -234 0
